
  22    4
  10   10   10   10

   0   0   0   0   0   5 2 3 4 6 10 
   3  10  10  10  10   6 14 13 11 9 7 5 
   7  10  10  10  10   4 15 14 13 9 
   7  10  10  10  10   4 16 15 14 13 
   2  10  10  10  10   3 21 16 8 
   1  10  10  10  10   2 16 8 
   5  10  10  10  10   4 21 20 16 15 
   9  10  10  10  10   3 20 15 12 
   7  10  10  10  10   3 20 16 12 
   2  10  10  10  10   2 13 12 
   4  10  10  10  10   3 20 18 15 
   7  10  10  10  10   3 19 18 17 
  10  10  10  10  10   3 20 18 17 
   9  10  10  10  10   3 21 19 17 
   4  10  10  10  10   2 19 17 
   7  10  10  10  10   2 18 17 
   8  10  10  10  10   1 22
   3  10  10  10  10   1 22
   8  10  10  10  10   1 22
   2  10  10  10  10   1 22
   2  10  10  10  10   1 22
   0   0   0   0   0   0 
